 vasp.5.4.4.18Apr17-6-g9f103f2a35 (build Sep 11 2017 17:27:03) complex

 executed on      GRP7IFC17NORMAL date 2019.03.25  17:08:26

 INCAR:
 POTCAR:    PAW_PBE Cu_pv 06Sep2000
 POTCAR:    PAW_PBE I 08Apr2002

 POTCAR:    PAW_PBE Cu_pv 06Sep2000
   VRHFIN =Cu: d10 p1

   TITEL  = PAW_PBE Cu_pv 06Sep2000
   POMASS =   63.546; ZVAL   =   17.000    mass and valenz
   ENMAX  =  368.648; ENMIN  =  276.486 eV

 POTCAR:    PAW_PBE I 08Apr2002
   VRHFIN =I : s2p5

   TITEL  = PAW_PBE I 08Apr2002
   POMASS =  126.904; ZVAL   =    7.000    mass and valenz
   ENMAX  =  175.647; ENMIN  =  131.735 eV

  PAW_PBE Cu_pv 06Sep2000               :
  PAW_PBE I 08Apr2002                   :

 POSCAR: Cu  I
  positions in direct lattice
  velocities in cartesian coordinates
 exchange correlation table for  LEXCH =       43
   RHO(1)=    0.500       N(1)  =     2000
   RHO(2)=  100.500       N(2)  =     4000

 ion  position               nearest neighbor table
   1  0.000  0.000  0.000-   3 2.53   2 2.53   2 2.53   3 2.53   3 2.53   2 2.53   5 2.53   4 2.53
                             6 2.53
   2  0.333  0.333  0.000-   3 2.53   1 2.53   1 2.53   3 2.53   3 2.53   1 2.53   4 2.53   6 2.53
                             5 2.53
   3  0.667  0.667  0.000-   1 2.53   2 2.53   2 2.53   1 2.53   2 2.53   1 2.53   6 2.53   5 2.53
                             4 2.53
   4  0.333  0.000  0.077-   8 2.52   6 2.53   5 2.53   5 2.53   6 2.53   5 2.53   6 2.53   2 2.53
                             1 2.53   3 2.53
   5  0.667  0.333  0.077-   8 2.53   6 2.53   4 2.53   4 2.53   6 2.53   6 2.53   4 2.53   1 2.53
                             3 2.53   2 2.53
   6  0.000  0.667  0.077-   8 2.52   4 2.53   5 2.53   4 2.53   5 2.53   5 2.53   4 2.53   3 2.53
                             2 2.53   1 2.53
   7  0.668  0.000  0.154-  11 2.52  12 2.52  10 2.52   9 2.53   9 2.53   8 2.53   8 2.53   8 2.53
                             9 2.53
   8  0.001  0.333  0.153-   4 2.52   6 2.52   5 2.53   9 2.53   7 2.53   7 2.53   9 2.53   9 2.53
                             7 2.53
   9  0.334  0.667  0.154-  11 2.52  10 2.52  12 2.52   7 2.53   7 2.53   8 2.53   8 2.53   8 2.53
                             7 2.53
  10  0.001  0.997  0.230-   9 2.52   7 2.52  12 2.52  11 2.52  11 2.52  12 2.52  15 2.69
  11  0.338  0.333  0.230-   9 2.52   7 2.52  10 2.52  10 2.52  12 2.52  12 2.52  15 2.69
  12  0.665  0.670  0.230-   7 2.52   9 2.52  10 2.52  11 2.52  11 2.52  10 2.52  15 2.69
  13  1.000  0.333  0.417-  14 2.59  14 2.59  14 2.59  15 2.79
  14  0.667  0.000  0.437-  13 2.59  13 2.59  13 2.59
  15  0.001  0.333  0.313-  12 2.69  10 2.69  11 2.69  13 2.79

  LATTYP: Found a hexagonal cell.
 ALAT       =     4.3881354332
 C/A-ratio  =     6.1529550332

  Lattice vectors:

 A1 = (   2.1940677166,  -3.8002367604,   0.0000000000)
 A2 = (  -4.3881354332,   0.0000000000,   0.0000000000)
 A3 = (   0.0000000000,   0.0000000000, -27.0000000000)

Analysis of symmetry for initial positions (statically):
 Subroutine PRICEL returns:
 Original cell was already a primitive cell.

 Routine SETGRP: Setting up the symmetry group for a
 hexagonal supercell.

 Subroutine GETGRP returns: Found  1 space group operations
 (whereof  1 operations were pure point group operations)
 out of a pool of 24 trial point group operations.

The static configuration has the point symmetry C_1 .

Analysis of symmetry for dynamics (positions and initial velocities):
 Subroutine PRICEL returns:
 Original cell was already a primitive cell.

[...]

The dynamic configuration has the point symmetry C_1 .

Analysis of constrained symmetry for selective dynamics:
 Subroutine PRICEL returns:
 Original cell was already a primitive cell.

 Routine SETGRP: Setting up the symmetry group for a
 hexagonal supercell.

 Subroutine GETGRP returns: Found  1 space group operations
 (whereof  1 operations were pure point group operations)
 out of a pool of 24 trial point group operations.

The constrained configuration has the point symmetry C_1 .

 Subroutine INISYM returns: Found  1 space group operations
 (whereof  1 operations are pure point group operations),
 and found     1 'primitive' translations

 KPOINTS: A

Automatic generation of k-mesh.
Space group operators:
 irot       det(A)        alpha          n_x          n_y          n_z        tau_x        tau_y        tau_z
    1     1.000000     0.000001     1.000000     0.000000     0.000000     0.000000     0.000000     0.000000

 Subroutine IBZKPT returns following result:

 Found     74 irreducible k-points:

 Following reciprocal coordinates:
            Coordinates               Weight
  0.000000  0.000000  0.000000      1.000000
  0.083333 -0.000000  0.000000      2.000000
  0.166667  0.000000  0.000000      2.000000
  0.250000 -0.000000  0.000000      2.000000
  0.333333  0.000000  0.000000      2.000000
  0.416667 -0.000000  0.000000      2.000000
  0.500000 -0.000000  0.000000      1.000000
  0.000000  0.083333  0.000000      2.000000
  0.083333  0.083333  0.000000      2.000000
  0.166667  0.083333  0.000000      2.000000
  0.250000  0.083333  0.000000      2.000000
  0.333333  0.083333  0.000000      2.000000
  0.416667  0.083333  0.000000      2.000000
  0.500000  0.083333  0.000000      2.000000
 -0.416667  0.083333  0.000000      2.000000
 -0.333333  0.083333  0.000000      2.000000
 -0.250000  0.083333  0.000000      2.000000
 -0.166667  0.083333  0.000000      2.000000
 -0.083333  0.083333  0.000000      2.000000
  0.000000  0.166667  0.000000      2.000000
  0.083333  0.166667  0.000000      2.000000
  0.166667  0.166667  0.000000      2.000000
  0.250000  0.166667  0.000000      2.000000
  0.333333  0.166667  0.000000      2.000000
  0.416667  0.166667  0.000000      2.000000
  0.500000  0.166667  0.000000      2.000000
 -0.416667  0.166667  0.000000      2.000000
 -0.333333  0.166667  0.000000      2.000000
 -0.250000  0.166667  0.000000      2.000000
 -0.166667  0.166667  0.000000      2.000000
 -0.083333  0.166667  0.000000      2.000000
  0.000000  0.250000  0.000000      2.000000
  0.083333  0.250000  0.000000      2.000000
  0.166667  0.250000  0.000000      2.000000
  0.250000  0.250000  0.000000      2.000000
  0.333333  0.250000  0.000000      2.000000
  0.416667  0.250000  0.000000      2.000000
  0.500000  0.250000  0.000000      2.000000
 -0.416667  0.250000  0.000000      2.000000
 -0.333333  0.250000  0.000000      2.000000
 -0.250000  0.250000  0.000000      2.000000
 -0.166667  0.250000  0.000000      2.000000
 -0.083333  0.250000  0.000000      2.000000
  0.000000  0.333333  0.000000      2.000000
  0.083333  0.333333  0.000000      2.000000
  0.166667  0.333333  0.000000      2.000000
  0.250000  0.333333  0.000000      2.000000
  0.333333  0.333333  0.000000      2.000000
  0.416667  0.333333  0.000000      2.000000
  0.500000  0.333333  0.000000      2.000000
 -0.416667  0.333333  0.000000      2.000000
 -0.333333  0.333333  0.000000      2.000000
 -0.250000  0.333333  0.000000      2.000000
 -0.166667  0.333333  0.000000      2.000000
 -0.083333  0.333333  0.000000      2.000000
  0.000000  0.416667  0.000000      2.000000
  0.083333  0.416667  0.000000      2.000000
  0.166667  0.416667  0.000000      2.000000
  0.250000  0.416667  0.000000      2.000000
  0.333333  0.416667  0.000000      2.000000
  0.416667  0.416667  0.000000      2.000000
  0.500000  0.416667  0.000000      2.000000
 -0.416667  0.416667  0.000000      2.000000
 -0.333333  0.416667  0.000000      2.000000
 -0.250000  0.416667  0.000000      2.000000
 -0.166667  0.416667  0.000000      2.000000
 -0.083333  0.416667  0.000000      2.000000
  0.000000  0.500000  0.000000      1.000000
  0.083333  0.500000  0.000000      2.000000
  0.166667  0.500000  0.000000      2.000000
  0.250000  0.500000  0.000000      2.000000
  0.333333  0.500000  0.000000      2.000000
  0.416667  0.500000  0.000000      2.000000
  0.500000  0.500000  0.000000      1.000000

 Following cartesian coordinates:
            Coordinates               Weight
  0.000000  0.000000  0.000000      1.000000
  0.018991 -0.010964  0.000000      2.000000
  0.037981 -0.021928  0.000000      2.000000
  0.056972 -0.032893  0.000000      2.000000
  0.075962 -0.043857  0.000000      2.000000
  0.094953 -0.054821  0.000000      2.000000
  0.113944 -0.065785  0.000000      1.000000
  0.000000  0.021928  0.000000      2.000000
  0.018991  0.010964  0.000000      2.000000
  0.037981 -0.000000  0.000000      2.000000
  0.056972 -0.010964  0.000000      2.000000
  0.075962 -0.021928  0.000000      2.000000
  0.094953 -0.032893  0.000000      2.000000
  0.113944 -0.043857  0.000000      2.000000
 -0.094953  0.076750  0.000000      2.000000
 -0.075962  0.065785  0.000000      2.000000
 -0.056972  0.054821  0.000000      2.000000
 -0.037981  0.043857  0.000000      2.000000
 -0.018991  0.032893  0.000000      2.000000
  0.000000  0.043857  0.000000      2.000000
  0.018991  0.032893  0.000000      2.000000
  0.037981  0.021928  0.000000      2.000000
  0.056972  0.010964  0.000000      2.000000
  0.075962  0.000000  0.000000      2.000000
  0.094953 -0.010964  0.000000      2.000000
  0.113944 -0.021928  0.000000      2.000000
 -0.094953  0.098678  0.000000      2.000000
 -0.075962  0.087714  0.000000      2.000000
 -0.056972  0.076750  0.000000      2.000000
 -0.037981  0.065785  0.000000      2.000000
 -0.018991  0.054821  0.000000      2.000000
  0.000000  0.065785  0.000000      2.000000
  0.018991  0.054821  0.000000      2.000000
  0.037981  0.043857  0.000000      2.000000
  0.056972  0.032893  0.000000      2.000000
  0.075962  0.021928  0.000000      2.000000
  0.094953  0.010964  0.000000      2.000000
  0.113944  0.000000  0.000000      2.000000
 -0.094953  0.120607  0.000000      2.000000
 -0.075962  0.109642  0.000000      2.000000
 -0.056972  0.098678  0.000000      2.000000
 -0.037981  0.087714  0.000000      2.000000
 -0.018991  0.076750  0.000000      2.000000
  0.000000  0.087714  0.000000      2.000000
  0.018991  0.076750  0.000000      2.000000
  0.037981  0.065785  0.000000      2.000000
  0.056972  0.054821  0.000000      2.000000
  0.075962  0.043857  0.000000      2.000000
  0.094953  0.032893  0.000000      2.000000
  0.113944  0.021928  0.000000      2.000000
 -0.094953  0.142535  0.000000      2.000000
 -0.075962  0.131571  0.000000      2.000000
 -0.056972  0.120607  0.000000      2.000000
 -0.037981  0.109642  0.000000      2.000000
 -0.018991  0.098678  0.000000      2.000000
  0.000000  0.109642  0.000000      2.000000
  0.018991  0.098678  0.000000      2.000000
  0.037981  0.087714  0.000000      2.000000
  0.056972  0.076750  0.000000      2.000000
  0.075962  0.065785  0.000000      2.000000
  0.094953  0.054821  0.000000      2.000000
  0.113944  0.043857  0.000000      2.000000
 -0.094953  0.164463  0.000000      2.000000
 -0.075962  0.153499  0.000000      2.000000
 -0.056972  0.142535  0.000000      2.000000
 -0.037981  0.131571  0.000000      2.000000
 -0.018991  0.120607  0.000000      2.000000
  0.000000  0.131571  0.000000      1.000000
  0.018991  0.120607  0.000000      2.000000
  0.037981  0.109642  0.000000      2.000000
[...]
 k-point 72 :   0.3333 0.5000 0.0000  plane waves:   11441
 k-point 73 :   0.4167 0.5000 0.0000  plane waves:   11463
 k-point 74 :   0.5000 0.5000 0.0000  plane waves:   11442

 maximum and minimum number of plane-waves per node :     11466    11283

 maximum number of plane-waves:     11466
 maximum index in each direction:
   IXMAX=    8   IYMAX=    8   IZMAX=   49
   IXMIN=   -8   IYMIN=   -8   IZMIN=  -49

 serial   3D FFT for wavefunctions
 parallel 3D FFT for charge:
    minimum data exchange during FFTs selected (reduces bandwidth)

 initial charge density was supplied:
 number of electron     235.0000004 magnetization
 keeping initial charge density in first step

 Maximum index for augmentation-charges        25612 (set IRDMAX)

 First call to EWALD:  gamma=   0.231
 Maximum number of real-space cells 5x 5x 1
 Maximum number of reciprocal cells 2x 2x 8

--------------------------------------- Iteration      1(   1)  ---------------------------------------

vdW kernel read from vdw_kernel.bindat
  0.0000  0.2424  0.5071  0.7962  1.1119  1.4567  1.8333  2.2446  2.6937  3.1842
  3.7199  4.3049  4.9438  5.6415  6.4036  7.2358  8.1446  9.1372 10.2212 11.4050
 12.6979 14.1099 15.6519 17.3360 19.1751 21.1837 23.3773 25.7729 28.3892 31.2465
 34.3669 37.7748 41.4965 45.5611 50.0000

 eigenvalue-minimisations  : 26760
 total energy-change (2. order) : 0.2647943E+04  (-0.1623698E+05)
 number of electron     235.0000004 magnetization
 augmentation part      235.0000004 magnetization

 Free energy of the ion-electron system (eV)
  alpha Z        PSCENC =       742.06687438
  Ewald energy   TEWEN  =    200321.52722691
  -Hartree energ DENC   =   -248953.82464757
  -exchange      EXHF   =         0.00000000
  -V(xc)+E(xc)   XCENC  =      1368.23739903
  PAW double counting   =     47646.22239885   -49582.27651668
  entropy T*S    EENTRO =        -0.01923960
  eigenvalues    EBANDS =     -3168.49584698
  atomic energy  EATOM  =     54274.50568096
  Solvation  Ediel_sol  =         0.00000000
  free energy    TOTEN  =      2647.94332931 eV

  energy without entropy =     2647.96256891  energy(sigma->0) =     2647.95294911

[...]

 eigenvalue-minimisations  : 22104
 total energy-change (2. order) :-0.2474718E+04  (-0.2402502E+04)
 number of electron     235.0000004 magnetization
 augmentation part      235.0000004 magnetization

[...]

--------------------------------------- Iteration      1(  10)  ---------------------------------------

 eigenvalue-minimisations  : 12512
 total energy-change (2. order) :-0.6963819E-07  (-0.6963206E-07)
 number of electron     235.0000004 magnetization
 augmentation part      235.0000004 magnetization

 Free energy of the ion-electron system (eV)
  alpha Z        PSCENC =       742.06687438
  Ewald energy   TEWEN  =    200321.52722691
  -Hartree energ DENC   =   -248953.82464757
  -exchange      EXHF   =         0.00000000
  -V(xc)+E(xc)   XCENC  =      1368.23739903
  PAW double counting   =     47646.22239885   -49582.27651668
  entropy T*S    EENTRO =        -0.02410425
  eigenvalues    EBANDS =     -5809.10224189
  atomic energy  EATOM  =     54274.50568096
  Solvation  Ediel_sol  =         0.00000000
  free energy    TOTEN  =         7.33206975 eV

  energy without entropy =        7.35617400  energy(sigma->0) =        7.34412187

 average (electrostatic) potential at core
  the test charge radii are     0.8297  1.1875
  (the norm of the test charge is              1.0000)
       1 -85.5296       2 -85.5296       3 -85.5295       4 -85.8140       5 -85.8141
       6 -85.8141       7 -85.8522       8 -85.7037       9 -85.8479      10 -85.7025
      11 -85.7019      12 -85.7022      13 -84.6071      14 -95.5388      15 -95.8871

 E-fermi :   0.5335     XC(G=0):  -6.9727     alpha+bet : -5.8952

 k-point     1 :       0.0000    0.0000    0.0000
  band No.  band energies     occupation
      1     -69.4213      2.00000
      2     -69.4088      2.00000
      3     -69.4084      2.00000
      4     -69.4057      2.00000
      5     -69.3800      2.00000
      6     -69.3785      2.00000
      7     -69.3784      2.00000
      8     -69.3705      2.00000
      9     -69.3704      2.00000
     10     -69.3647      2.00000
     11     -69.3580      2.00000
     12     -69.3476      2.00000
     13     -69.3476      2.00000
     14     -69.3115      2.00000
     15     -69.3113      2.00000
     16     -69.2950      2.00000
     17     -69.2911      2.00000
     18     -69.2910      2.00000
     19     -69.2855      2.00000
     20     -69.2426      2.00000
     21     -69.2425      2.00000
     22     -69.2417      2.00000
     23     -69.2328      2.00000
     24     -69.2327      2.00000
     25     -69.1939      2.00000
     26     -69.1861      2.00000
     27     -69.1857      2.00000
     28     -69.1213      2.00000
     29     -69.1174      2.00000
     30     -69.1174      2.00000
     31     -69.1148      2.00000
     32     -69.0546      2.00000
     33     -69.0546      2.00000
     34     -69.0223      2.00000
     35     -69.0120      2.00000
     36     -69.0120      2.00000
     37     -68.1894      2.00000
     38     -68.1561      2.00000
     39     -68.1561      2.00000
     40     -12.9233      2.00000
     41     -12.4726      2.00000
     42      -8.5543      2.00000
     43      -7.3263      2.00000
     44      -5.8137      2.00000
     45      -4.8605      2.00000
     46      -3.9749      2.00000
     47      -3.5760      2.00000
     48      -3.5416      2.00000
     49      -3.5394      2.00000
     50      -3.5378      2.00000
     51      -3.4839      2.00000
     52      -3.4832      2.00000
     53      -3.4453      2.00000
     54      -3.4443      2.00000
     55      -3.3860      2.00000
     56      -3.3790      2.00000
     57      -3.3238      2.00000
     58      -3.3232      2.00000
     59      -3.1736      2.00000
     60      -3.1733      2.00000
[...]
    130       5.0818      0.00000
    131       5.5496      0.00000
    132       5.7078      0.00000
    133       5.7089      0.00000
    134       5.9424      0.00000
    135       5.9801      0.00000
    136       5.9824      0.00000
    137       6.4640      0.00000
    138       6.4690      0.00000
    139       6.8484      0.00000
    140       6.9512      0.00000
    141       7.0744      0.00000
    142       7.2834      0.00000
    143       7.2867      0.00000
    144       7.5810      0.00000

[...]

 k-point    74 :       0.5000    0.5000    0.0000
  band No.  band energies     occupation
      1     -69.4197      2.00000
      2     -69.4170      2.00000
      3     -69.4135      2.00000
      4     -69.3978      2.00000
      5     -69.3943      2.00000
      6     -69.3787      2.00000
      7     -69.3664      2.00000
      8     -69.3654      2.00000
      9     -69.3568      2.00000
     10     -69.3559      2.00000
     11     -69.3505      2.00000
     12     -69.3497      2.00000
     13     -69.3355      2.00000
     14     -69.3320      2.00000
     15     -69.3265      2.00000
     16     -69.3156      2.00000
     17     -69.2821      2.00000
     18     -69.2785      2.00000
     19     -69.2539      2.00000
     20     -69.2498      2.00000
     21     -69.2494      2.00000
     22     -69.2473      2.00000
     23     -69.2431      2.00000
     24     -69.2408      2.00000
     25     -69.1908      2.00000
     26     -69.1890      2.00000
     27     -69.1885      2.00000
     28     -69.1443      2.00000
     29     -69.1083      2.00000
     30     -69.1055      2.00000
     31     -69.0783      2.00000
     32     -69.0747      2.00000
     33     -69.0708      2.00000
     34     -69.0166      2.00000
     35     -69.0165      2.00000
     36     -69.0131      2.00000
     37     -68.1893      2.00000
     38     -68.1566      2.00000
     39     -68.1563      2.00000
     40     -12.6053      2.00000
     41     -12.1710      2.00000
     42      -6.1127      2.00000
     43      -6.1055      2.00000
     44      -5.3172      2.00000
     45      -5.1988      2.00000
     46      -4.6606      2.00000
     47      -4.4793      2.00000
     48      -4.3318      2.00000
     49      -4.2194      2.00000
     50      -4.1074      2.00000
     51      -4.0221      2.00000
     52      -3.9074      2.00000
     53      -3.8247      2.00000
     54      -3.6965      2.00000
     55      -3.6313      2.00000
     56      -3.4785      2.00000
     57      -3.4601      2.00000
     58      -3.3973      2.00000
     59      -3.2672      2.00000
     60      -3.2388      2.00000
[...]
    130       5.9157      0.00000
    131       6.1910      0.00000
    132       6.7634      0.00000
    133       6.8946      0.00000
    134       7.0179      0.00000
    135       7.2718      0.00000
    136       7.3504      0.00000
    137       7.5479      0.00000
    138       7.9968      0.00000
    139       8.2419      0.00000
    140       8.3891      0.00000
    141       8.7894      0.00000
    142       8.8847      0.00000
    143       9.0695      0.00000
    144       9.6099      0.00000

 soft charge-density along one line, spin component           1
         0         1         2         3         4         5         6         7         8         9
 total charge-density along one line

------------------------ aborting loop because EDIFF is reached ----------------------------------------

 DIPCOR: dipole corrections for dipol
 direction  3 min pos   264,
 dipolmoment           0.000000      0.000000      0.052338 electrons x Angstroem
 Tr[quadrupol]      -651.730517

 energy correction for charged system         0.000000 eV
 dipol+quadrupol energy correction            0.000550 eV
 added-field ion interaction          0.000000 eV  (added to PSCEN)

  *************** adding dipol energy to TOTEN NOW ****************

 total charge

# of ion       s       p       d       tot
    1        0.310   6.149   8.900  15.359
    2        0.310   6.149   8.900  15.359
    3        0.310   6.149   8.900  15.359
    4        0.303   6.196   8.888  15.386
    5        0.303   6.196   8.888  15.386
    6        0.303   6.196   8.888  15.386
    7        0.300   6.205   8.877  15.381
    8        0.303   6.192   8.898  15.393
    9        0.300   6.204   8.878  15.382
   10        0.294   6.171   8.914  15.379
   11        0.294   6.171   8.914  15.379
   12        0.294   6.171   8.914  15.379
   13        0.224   6.116   9.025  15.365
   14        1.498   2.761   0.038   4.298
   15        1.518   2.708   0.041   4.267
tot          6.862  85.733 115.864 208.458

  FORCE on cell =-STRESS in cart. coord.  units (eV):
  Direction    XX          YY          ZZ          XY          YZ          ZX
  Alpha Z   742.06687   742.06687   742.06687
  Ewald  223043.01669223047.04953************     0.01991    -0.04100    -2.36322
  Hartree237544.05338237546.67606************     0.00078    -0.01959    -1.42526
  E(xc)   -1791.84740 -1791.84556 -1791.95631     0.00005    -0.00004    -0.00125
  Local  ************************468568.41979    -0.01320     0.05948     3.74191
  n-local  -885.80947  -885.79510  -889.78685     0.00066     0.00004    -0.00694
  augment  2360.49035  2360.47735  2367.46509    -0.00562     0.00018     0.01435
  Kinetic  2887.28759  2887.27065  2895.55126    -0.00293     0.00137     0.01589
  Fock        0.00000     0.00000     0.00000     0.00000     0.00000     0.00000
  Total      -3.22100    -3.18623    -1.44618    -0.00034     0.00044    -0.02452
  in kB     -11.46164   -11.33791    -5.14612    -0.00121     0.00157    -0.08726

 VOLUME and BASIS-vectors are now :
  energy-cutoff  :      500.00
  volume of cell :      450.25
      direct lattice vectors                 reciprocal lattice vectors
     4.388135433  0.000000000  0.000000000     0.227887223 -0.131570750  0.000000000
     2.194067717  3.800236760  0.000000000     0.000000000  0.263141500  0.000000000
     0.000000000  0.000000000 27.000000000     0.000000000  0.000000000  0.037037037

  length of vectors
     4.388135433  4.388135433 27.000000000     0.263141500  0.263141500  0.037037037

 FORCES acting on ions
    electron-ion (+dipol)            ewald-force                    non-local-force                 convergence-correction
   0.457E-01 0.143E+00 0.103E+05   -.116E+00 -.206E+00 -.103E+05   0.694E-01 0.659E-01 -.262E+01   -.324E-03 -.175E-02 -.143E+00
   -.167E+00 -.360E-01 0.103E+05   0.237E+00 -.271E-02 -.103E+05   -.116E+00 0.145E-01 -.262E+01   0.462E-01 0.225E-01 -.138E+00
   0.120E+00 -.104E+00 0.103E+05   -.119E+00 0.208E+00 -.103E+05   0.470E-01 -.728E-01 -.262E+01   -.458E-01 -.316E-01 -.138E+00
   -.337E+01 0.556E+01 0.428E+04   0.361E+01 -.597E+01 -.428E+04   -.225E+00 0.350E+00 -.116E+01   0.118E-01 0.170E-01 -.817E-01
   0.602E+01 -.895E-01 0.428E+04   -.650E+01 0.630E-01 -.428E+04   0.412E+00 -.292E-02 -.116E+01   0.913E-02 0.291E-01 -.904E-01
   -.322E+01 -.546E+01 0.428E+04   0.346E+01 0.591E+01 -.428E+04   -.184E+00 -.339E+00 -.116E+01   -.243E-01 -.570E-01 -.813E-01
   0.782E+00 0.504E+00 -.181E+04   -.774E+00 -.495E+00 0.181E+04   0.440E-02 0.135E-01 -.384E+00   -.178E-01 -.252E-01 0.838E-01
   0.753E-01 -.163E-01 -.176E+04   -.855E-01 0.973E-02 0.176E+04   -.927E-02 -.808E-02 0.858E+00   0.177E-01 0.149E-01 -.183E+00
   -.626E+00 -.493E+00 -.181E+04   0.624E+00 0.490E+00 0.181E+04   0.535E-02 -.698E-02 -.341E+00   -.685E-03 0.127E-01 -.307E-01
   0.668E+01 0.125E+02 -.786E+04   -.806E+01 -.149E+02 0.785E+04   0.137E+01 0.235E+01 0.615E+01   0.104E-01 0.793E-03 0.410E-01
   -.140E+02 0.102E+00 -.786E+04   0.167E+02 -.102E+00 0.786E+04   -.275E+01 0.338E-01 0.622E+01   0.599E-01 -.362E-01 -.715E-01
   0.773E+01 -.127E+02 -.786E+04   -.904E+01 0.150E+02 0.786E+04   0.137E+01 -.237E+01 0.615E+01   -.586E-01 0.215E-01 0.355E-01
   0.139E+00 -.119E-01 -.780E+04   -.145E+00 0.534E-02 0.780E+04   -.111E-03 -.118E-01 -.170E+01   0.634E-02 0.184E-01 0.272E+00
   0.220E-01 -.339E-02 -.317E+04   -.236E-01 0.367E-02 0.317E+04   0.165E-02 0.868E-04 -.225E+01   0.107E-03 -.258E-03 0.613E-01
   -.180E+00 0.435E-01 -.391E+04   0.188E+00 -.442E-01 0.391E+04   -.688E-02 0.828E-03 -.252E+01   -.993E-03 -.357E-03 0.263E+00
   -.360E-02 0.278E-02 -.667E+00   0.390E-12 0.386E-14 -.150E-10   -.946E-02 0.122E-01 0.851E+00   0.133E-01 -.155E-01 -.200E+00

 POSITION                                       TOTAL-FORCE (eV/Angst)
      0.00000      0.00000      0.00000        -0.001260      0.001628     -0.014010
      2.19407      1.26675      0.00000        -0.000191     -0.001740     -0.014245
      4.38814      2.53349      0.00000         0.001547      0.000079     -0.014047
      1.46271      0.00000      2.06860         0.034284     -0.052863      0.014174
      3.65678      1.26675      2.06860        -0.057690     -0.000357      0.013922
      1.46271      2.53349      2.06860         0.032241      0.052965      0.013316
      2.92955      0.00023      4.15558        -0.005029     -0.003394     -0.002949
      0.73518      1.26671      4.12634        -0.001770      0.000258     -0.011470
      2.92890      2.53321      4.15551         0.002806      0.002949     -0.005385
      2.19346      3.78911      6.20827        -0.000992     -0.000638     -0.005373
      2.21296      1.26684      6.20842        -0.001241     -0.002411     -0.006973
      4.38784      2.54444      6.20856        -0.003176      0.003373     -0.007887
      5.11955      1.26686     11.24775         0.000213      0.000148      0.010624
      2.92567      0.00010     11.80271         0.000167      0.000145      0.020599
      0.73669      1.26656      8.46080         0.000093     -0.000142      0.009705
    total drift:                                0.000190     -0.000491     -0.016096

  FREE ENERGIE OF THE ION-ELECTRON SYSTEM (eV)
  free  energy   TOTEN  =         7.33262019 eV

  energy  without entropy=        7.35672444  energy(sigma->0) =        7.34467232

 vacuum level on the upper side and lower side of the slab         5.758         5.747

 total charge

# of ion       s       p       d       tot
    1        0.310   6.149   8.900  15.359
    2        0.310   6.149   8.900  15.359
    3        0.310   6.149   8.900  15.359
    4        0.303   6.196   8.888  15.386
    5        0.303   6.196   8.888  15.386
    6        0.303   6.196   8.888  15.386
    7        0.300   6.205   8.877  15.381
    8        0.303   6.192   8.898  15.393
    9        0.300   6.204   8.878  15.382
   10        0.294   6.171   8.914  15.379
   11        0.294   6.171   8.914  15.379
   12        0.294   6.171   8.914  15.379
   13        0.224   6.116   9.025  15.365
   14        1.498   2.761   0.038   4.298
   15        1.518   2.708   0.041   4.267
tot          6.862  85.733 115.864 208.458